<number of tasks>
50

<cycle time>
1000

<order strength>
0.202


<task times>
1 288
2 108
3 149
4 174
5 69
6 88
7 140
8 152
9 128
10 193
11 109
12 71
13 208
14 117
15 348
16 158
17 243
18 124
19 87
20 213
21 62
22 130
23 192
24 189
25 262
26 76
27 169
28 79
29 76
30 136
31 147
32 93
33 24
34 250
35 73
36 250
37 243
38 155
39 101
40 118
41 130
42 78
43 24
44 67
45 193
46 279
47 164
48 73
49 123
50 77

<precedence relations>
2,33
3,12
3,40
6,11
6,13
7,9
7,10
9,18
10,16
10,17
11,14
12,34
13,15
14,19
14,20
15,23
16,22
17,50
18,21
19,24
22,26
22,28
22,30
23,25
23,27
23,29
23,31
23,32
23,34
23,35
26,33
28,34
28,35
29,36
30,32
30,36
30,44
31,37
33,44
34,38
36,39
36,41
36,42
37,40
37,43
38,47
41,45
41,48
42,49
42,50
43,46

<end>
